(set-info :smt-lib-version 2.6)
(set-logic QF_ALIA)
(set-info :notes "Adapted for Array Sum evaluation.
Base file: qlock.induction.20.smt2")
(set-info :source |
Unbounded version of the queue lock algorithm.
|)
(set-info :category "industrial")
(declare-fun x_0 () (Array Int Int))
(declare-fun x_1 () Int)
(declare-fun x_2 () Int)
(declare-fun x_3 () (Array Int Int))
(declare-fun x_4 () (Array Int Int))
(declare-fun x_5 () (Array Int Int))
(declare-fun x_6 () (Array Int Int))
(declare-fun x_7 () (Array Int Int))
(declare-fun x_8 () (Array Int Int))
(declare-fun x_9 () (Array Int Int))
(declare-fun x_10 () (Array Int Int))
(declare-fun x_11 () (Array Int Int))
(declare-fun x_12 () (Array Int Int))
(declare-fun x_13 () (Array Int Int))
(declare-fun x_14 () (Array Int Int))
(declare-fun x_15 () (Array Int Int))
(declare-fun x_16 () (Array Int Int))
(declare-fun x_17 () (Array Int Int))
(declare-fun x_18 () (Array Int Int))
(declare-fun x_19 () (Array Int Int))
(declare-fun x_20 () (Array Int Int))
(declare-fun x_21 () (Array Int Int))
(declare-fun x_22 () (Array Int Int))
(declare-fun x_23 () Int)
(declare-fun x_24 () Int)
(declare-fun x_25 () (Array Int Int))
(declare-fun x_26 () Int)
(declare-fun x_27 () Bool)
(declare-fun x_28 () Bool)
(declare-fun x_29 () Int)
(declare-fun x_30 () Int)
(declare-fun x_31 () Int)
(declare-fun x_32 () Int)
(declare-fun x_33 () Int)
(declare-fun x_34 () Int)
(declare-fun x_35 () Int)
(declare-fun x_36 () Int)
(declare-fun x_37 () Int)
(declare-fun x_38 () Int)
(declare-fun x_39 () Int)
(declare-fun x_40 () Int)
(declare-fun x_41 () (Array Int Int))
(declare-fun x_42 () Int)
(declare-fun x_43 () Bool)
(declare-fun x_44 () Int)
(declare-fun x_45 () Int)
(declare-fun x_46 () Int)
(declare-fun x_47 () Int)
(declare-fun x_48 () Int)
(declare-fun x_49 () Int)
(declare-fun x_50 () Int)
(declare-fun x_51 () Int)
(declare-fun x_52 () Int)
(declare-fun x_53 () Int)
(declare-fun x_54 () (Array Int Int))
(declare-fun x_55 () Int)
(declare-fun x_56 () Bool)
(declare-fun x_57 () Int)
(declare-fun x_58 () Int)
(declare-fun x_59 () Int)
(declare-fun x_60 () Int)
(declare-fun x_61 () Int)
(declare-fun x_62 () Int)
(declare-fun x_63 () Int)
(declare-fun x_64 () Int)
(declare-fun x_65 () Int)
(declare-fun x_66 () Int)
(declare-fun x_67 () (Array Int Int))
(declare-fun x_68 () Int)
(declare-fun x_69 () Bool)
(declare-fun x_70 () Int)
(declare-fun x_71 () Int)
(declare-fun x_72 () Int)
(declare-fun x_73 () Int)
(declare-fun x_74 () Int)
(declare-fun x_75 () Int)
(declare-fun x_76 () Int)
(declare-fun x_77 () Int)
(declare-fun x_78 () Int)
(declare-fun x_79 () Int)
(declare-fun x_80 () (Array Int Int))
(declare-fun x_81 () Int)
(declare-fun x_82 () Bool)
(declare-fun x_83 () Int)
(declare-fun x_84 () Int)
(declare-fun x_85 () Int)
(declare-fun x_86 () Int)
(declare-fun x_87 () Int)
(declare-fun x_88 () Int)
(declare-fun x_89 () Int)
(declare-fun x_90 () Int)
(declare-fun x_91 () Int)
(declare-fun x_92 () Int)
(declare-fun x_93 () (Array Int Int))
(declare-fun x_94 () Int)
(declare-fun x_95 () Bool)
(declare-fun x_96 () Int)
(declare-fun x_97 () Int)
(declare-fun x_98 () Int)
(declare-fun x_99 () Int)
(declare-fun x_100 () Int)
(declare-fun x_101 () Int)
(declare-fun x_102 () Int)
(declare-fun x_103 () Int)
(declare-fun x_104 () Int)
(declare-fun x_105 () Int)
(declare-fun x_106 () (Array Int Int))
(declare-fun x_107 () Int)
(declare-fun x_108 () Bool)
(declare-fun x_109 () Int)
(declare-fun x_110 () Int)
(declare-fun x_111 () Int)
(declare-fun x_112 () Int)
(declare-fun x_113 () Int)
(declare-fun x_114 () Int)
(declare-fun x_115 () Int)
(declare-fun x_116 () Int)
(declare-fun x_117 () Int)
(declare-fun x_118 () Int)
(declare-fun x_119 () (Array Int Int))
(declare-fun x_120 () Int)
(declare-fun x_121 () Bool)
(declare-fun x_122 () Int)
(declare-fun x_123 () Int)
(declare-fun x_124 () Int)
(declare-fun x_125 () Int)
(declare-fun x_126 () Int)
(declare-fun x_127 () Int)
(declare-fun x_128 () Int)
(declare-fun x_129 () Int)
(declare-fun x_130 () Int)
(declare-fun x_131 () Int)
(declare-fun x_132 () (Array Int Int))
(declare-fun x_133 () Int)
(declare-fun x_134 () Bool)
(declare-fun x_135 () Int)
(declare-fun x_136 () Int)
(declare-fun x_137 () Int)
(declare-fun x_138 () Int)
(declare-fun x_139 () Int)
(declare-fun x_140 () Int)
(declare-fun x_141 () Int)
(declare-fun x_142 () Int)
(declare-fun x_143 () Int)
(declare-fun x_144 () Int)
(declare-fun x_145 () (Array Int Int))
(declare-fun x_146 () Int)
(declare-fun x_147 () Bool)
(declare-fun x_148 () Int)
(declare-fun x_149 () Int)
(declare-fun x_150 () Int)
(declare-fun x_151 () Int)
(declare-fun x_152 () Int)
(declare-fun x_153 () Int)
(declare-fun x_154 () Int)
(declare-fun x_155 () Int)
(declare-fun x_156 () Int)
(declare-fun x_157 () Int)
(declare-fun x_158 () (Array Int Int))
(declare-fun x_159 () Int)
(declare-fun x_160 () Bool)
(declare-fun x_161 () Int)
(declare-fun x_162 () Int)
(declare-fun x_163 () Int)
(declare-fun x_164 () Int)
(declare-fun x_165 () Int)
(declare-fun x_166 () Int)
(declare-fun x_167 () Int)
(declare-fun x_168 () Int)
(declare-fun x_169 () Int)
(declare-fun x_170 () Int)
(declare-fun x_171 () (Array Int Int))
(declare-fun x_172 () Int)
(declare-fun x_173 () Bool)
(declare-fun x_174 () Int)
(declare-fun x_175 () Int)
(declare-fun x_176 () Int)
(declare-fun x_177 () Int)
(declare-fun x_178 () Int)
(declare-fun x_179 () Int)
(declare-fun x_180 () Int)
(declare-fun x_181 () Int)
(declare-fun x_182 () Int)
(declare-fun x_183 () Int)
(declare-fun x_184 () (Array Int Int))
(declare-fun x_185 () Int)
(declare-fun x_186 () Bool)
(declare-fun x_187 () Int)
(declare-fun x_188 () Int)
(declare-fun x_189 () Int)
(declare-fun x_190 () Int)
(declare-fun x_191 () Int)
(declare-fun x_192 () Int)
(declare-fun x_193 () Int)
(declare-fun x_194 () Int)
(declare-fun x_195 () Int)
(declare-fun x_196 () Int)
(declare-fun x_197 () (Array Int Int))
(declare-fun x_198 () Int)
(declare-fun x_199 () Bool)
(declare-fun x_200 () Int)
(declare-fun x_201 () Int)
(declare-fun x_202 () Int)
(declare-fun x_203 () Int)
(declare-fun x_204 () Int)
(declare-fun x_205 () Int)
(declare-fun x_206 () Int)
(declare-fun x_207 () Int)
(declare-fun x_208 () Int)
(declare-fun x_209 () Int)
(declare-fun x_210 () (Array Int Int))
(declare-fun x_211 () Int)
(declare-fun x_212 () Bool)
(declare-fun x_213 () Int)
(declare-fun x_214 () Int)
(declare-fun x_215 () Int)
(declare-fun x_216 () Int)
(declare-fun x_217 () Int)
(declare-fun x_218 () Int)
(declare-fun x_219 () Int)
(declare-fun x_220 () Int)
(declare-fun x_221 () Int)
(declare-fun x_222 () Int)
(declare-fun x_223 () (Array Int Int))
(declare-fun x_224 () Int)
(declare-fun x_225 () Bool)
(declare-fun x_226 () Int)
(declare-fun x_227 () Int)
(declare-fun x_228 () Int)
(declare-fun x_229 () Int)
(declare-fun x_230 () Int)
(declare-fun x_231 () Int)
(declare-fun x_232 () Int)
(declare-fun x_233 () Int)
(declare-fun x_234 () Int)
(declare-fun x_235 () Int)
(declare-fun x_236 () (Array Int Int))
(declare-fun x_237 () Int)
(declare-fun x_238 () Bool)
(declare-fun x_239 () Int)
(declare-fun x_240 () Int)
(declare-fun x_241 () Int)
(declare-fun x_242 () Int)
(declare-fun x_243 () Int)
(declare-fun x_244 () Int)
(declare-fun x_245 () Int)
(declare-fun x_246 () Int)
(declare-fun x_247 () Int)
(declare-fun x_248 () Int)
(declare-fun x_249 () (Array Int Int))
(declare-fun x_250 () Int)
(declare-fun x_251 () Bool)
(declare-fun x_252 () Int)
(declare-fun x_253 () Int)
(declare-fun x_254 () Int)
(declare-fun x_255 () Int)
(declare-fun x_256 () Int)
(declare-fun x_257 () Int)
(declare-fun x_258 () Int)
(declare-fun x_259 () Int)
(declare-fun x_260 () Int)
(declare-fun x_261 () Int)
(declare-fun x_262 () (Array Int Int))
(declare-fun x_263 () Int)
(declare-fun x_264 () Bool)
(declare-fun x_265 () Int)
(declare-fun x_266 () Int)
(declare-fun x_267 () Int)
(declare-fun x_268 () Int)
(declare-fun x_269 () Int)
(declare-fun x_270 () Int)
(declare-fun x_271 () Int)
(declare-fun x_272 () Int)
(declare-fun x_273 () Int)
(declare-fun x_274 () Int)
(declare-fun x_275 () (Array Int Int))
(declare-fun x_276 () Int)
(declare-fun x_277 () Bool)
(declare-fun x_278 () Int)
(declare-fun x_279 () Int)
(declare-fun x_280 () Int)
(declare-fun x_281 () Int)
(declare-fun x_282 () Int)
(declare-fun x_283 () (Array Int Int))
(declare-fun x_284 () Int)
(declare-fun x_285 () Int)
(declare-fun x_286 () Int)
(declare-fun x_287 () Int)
(declare-fun x_288 () Int)
(declare-fun x_289 () Int)
(declare-fun x_290 () Int)
(declare-fun x_291 () Int)
(declare-fun x_292 () Int)
(declare-fun x_293 () Int)
(declare-fun x_294 () Int)
(declare-fun x_295 () Int)
(declare-fun x_296 () Int)
(declare-fun x_297 () Int)
(declare-fun x_298 () Int)
(declare-fun x_299 () Int)
(declare-fun x_300 () Int)
(declare-fun x_301 () Int)
(declare-fun x_302 () Int)
(declare-fun x_303 () Int)
(declare-fun x_304 () Int)
(declare-fun x_305 () Int)
(declare-fun x_306 () Int)
(declare-fun x_307 () Int)
(declare-fun x_308 () Int)
(declare-fun x_309 () Int)
(declare-fun x_310 () Int)
(declare-fun x_311 () Int)
(declare-fun x_312 () Int)
(declare-fun x_313 () Int)
(declare-fun x_314 () Int)
(declare-fun x_315 () Int)
(declare-fun x_316 () Int)
(declare-fun x_317 () Int)
(declare-fun x_318 () Int)
(declare-fun x_319 () Int)
(declare-fun x_320 () Int)
(declare-fun x_321 () Int)
(declare-fun x_322 () Int)
(declare-fun x_323 () Int)
(declare-fun x_324 () Int)
(declare-fun x_325 () Int)
(declare-fun x_326 () Int)
(declare-fun x_327 () Int)
(declare-fun x_328 () Int)
(declare-fun x_329 () Int)
(declare-fun x_330 () Int)
(declare-fun x_331 () Int)
(declare-fun x_332 () Int)
(declare-fun x_333 () Int)
(declare-fun x_334 () Int)
(declare-fun x_335 () Int)
(declare-fun x_336 () Int)
(declare-fun x_337 () Int)
(declare-fun x_338 () Int)
(declare-fun x_339 () Int)
(declare-fun x_340 () Int)
(declare-fun x_341 () Int)
(declare-fun x_342 () Int)
(declare-fun x_343 () Int)
(declare-fun x_344 () Int)
(declare-fun x_345 () Int)
(declare-fun x_346 () Int)
(declare-fun x_347 () Int)
(declare-fun x_348 () Int)
(declare-fun x_349 () Int)
(declare-fun x_350 () Int)
(declare-fun x_351 () Int)
(declare-fun x_352 () Int)
(declare-fun x_353 () Int)
(declare-fun x_354 () Int)
(declare-fun x_355 () Int)
(declare-fun x_356 () Int)
(declare-fun x_357 () Int)
(declare-fun x_358 () Int)
(declare-fun x_359 () Int)
(declare-fun x_360 () Int)
(declare-fun x_361 () Int)
(declare-fun x_362 () Int)
(declare-fun x_363 () Int)
(declare-fun x_364 () Int)
(declare-fun x_365 () Int)
(declare-fun x_366 () Int)
(declare-fun x_367 () Int)
(declare-fun x_368 () Int)
(declare-fun x_369 () Int)
(declare-fun x_370 () Int)
(declare-fun x_371 () Int)
(declare-fun x_372 () Int)
(declare-fun x_373 () Int)
(declare-fun x_374 () Int)
(declare-fun x_375 () Int)
(declare-fun x_376 () Int)
(declare-fun x_377 () Int)
(declare-fun x_378 () Int)
(declare-fun x_379 () Int)
(declare-fun x_380 () Int)
(declare-fun x_381 () Int)
(declare-fun x_382 () Int)
(declare-fun x_383 () Int)
(declare-fun x_384 () Int)
(declare-fun x_385 () Int)
(declare-fun x_386 () Int)
(declare-fun x_387 () Int)
(declare-fun x_388 () Int)
(declare-fun x_389 () Int)
(declare-fun x_390 () Int)
(declare-fun x_391 () Int)
(declare-fun x_392 () Int)
(declare-fun x_393 () Int)
(declare-fun x_394 () Int)
(declare-fun x_395 () Int)
(declare-fun x_396 () Int)
(declare-fun x_397 () Int)
(declare-fun x_398 () Int)
(declare-fun x_399 () Int)
(declare-fun x_400 () Int)
(declare-fun x_401 () Int)
(declare-fun x_402 () Int)
(declare-fun x_403 () Int)
(declare-fun x_404 () Int)
(declare-fun x_405 () Int)
(declare-fun x_406 () Int)
(declare-fun x_407 () Int)
(declare-fun x_408 () Int)
(declare-fun x_409 () Int)
(assert (let ((?v_98 (= x_25 x_22)) (?v_95 (= x_26 x_23)) (?v_96 (= x_27 x_28)) (?v_99 (= x_29 x_30)) (?v_97 (not (<= x_30 x_23))) (?v_93 (= x_41 x_25)) (?v_90 (= x_42 x_26)) (?v_91 (= x_43 x_27)) (?v_94 (= x_44 x_29)) (?v_92 (not (<= x_29 x_26))) (?v_88 (= x_54 x_41)) (?v_85 (= x_55 x_42)) (?v_86 (= x_56 x_43)) (?v_89 (= x_57 x_44)) (?v_87 (not (<= x_44 x_42))) (?v_83 (= x_67 x_54)) (?v_80 (= x_68 x_55)) (?v_81 (= x_69 x_56)) (?v_84 (= x_70 x_57)) (?v_82 (not (<= x_57 x_55))) (?v_78 (= x_80 x_67)) (?v_75 (= x_81 x_68)) (?v_76 (= x_82 x_69)) (?v_79 (= x_83 x_70)) (?v_77 (not (<= x_70 x_68))) (?v_73 (= x_93 x_80)) (?v_70 (= x_94 x_81)) (?v_71 (= x_95 x_82)) (?v_74 (= x_96 x_83)) (?v_72 (not (<= x_83 x_81))) (?v_68 (= x_106 x_93)) (?v_65 (= x_107 x_94)) (?v_66 (= x_108 x_95)) (?v_69 (= x_109 x_96)) (?v_67 (not (<= x_96 x_94))) (?v_63 (= x_119 x_106)) (?v_60 (= x_120 x_107)) (?v_61 (= x_121 x_108)) (?v_64 (= x_122 x_109)) (?v_62 (not (<= x_109 x_107))) (?v_58 (= x_132 x_119)) (?v_55 (= x_133 x_120)) (?v_56 (= x_134 x_121)) (?v_59 (= x_135 x_122)) (?v_57 (not (<= x_122 x_120))) (?v_53 (= x_145 x_132)) (?v_50 (= x_146 x_133)) (?v_51 (= x_147 x_134)) (?v_54 (= x_148 x_135)) (?v_52 (not (<= x_135 x_133))) (?v_48 (= x_158 x_145)) (?v_45 (= x_159 x_146)) (?v_46 (= x_160 x_147)) (?v_49 (= x_161 x_148)) (?v_47 (not (<= x_148 x_146))) (?v_43 (= x_171 x_158)) (?v_40 (= x_172 x_159)) (?v_41 (= x_173 x_160)) (?v_44 (= x_174 x_161)) (?v_42 (not (<= x_161 x_159))) (?v_38 (= x_184 x_171)) (?v_35 (= x_185 x_172)) (?v_36 (= x_186 x_173)) (?v_39 (= x_187 x_174)) (?v_37 (not (<= x_174 x_172))) (?v_33 (= x_197 x_184)) (?v_30 (= x_198 x_185)) (?v_31 (= x_199 x_186)) (?v_34 (= x_200 x_187)) (?v_32 (not (<= x_187 x_185))) (?v_28 (= x_210 x_197)) (?v_25 (= x_211 x_198)) (?v_26 (= x_212 x_199)) (?v_29 (= x_213 x_200)) (?v_27 (not (<= x_200 x_198))) (?v_23 (= x_223 x_210)) (?v_20 (= x_224 x_211)) (?v_21 (= x_225 x_212)) (?v_24 (= x_226 x_213)) (?v_22 (not (<= x_213 x_211))) (?v_18 (= x_236 x_223)) (?v_15 (= x_237 x_224)) (?v_16 (= x_238 x_225)) (?v_19 (= x_239 x_226)) (?v_17 (not (<= x_226 x_224))) (?v_13 (= x_249 x_236)) (?v_10 (= x_250 x_237)) (?v_11 (= x_251 x_238)) (?v_14 (= x_252 x_239)) (?v_12 (not (<= x_239 x_237))) (?v_8 (= x_262 x_249)) (?v_5 (= x_263 x_250)) (?v_6 (= x_264 x_251)) (?v_9 (= x_265 x_252)) (?v_7 (not (<= x_252 x_250))) (?v_3 (= x_275 x_262)) (?v_0 (= x_276 x_263)) (?v_1 (= x_277 x_264)) (?v_4 (= x_278 x_265)) (?v_2 (not (<= x_265 x_263)))) (and (and (and (and (and (and (and (and (and (and (and (and (and (and (and (and (and (and (and (and (and (and (and (and (and (and (and (and (and (and (and (and (and (and (and (and (and (and (and (and (and (and (and (and (and (and (and (and (and (and (and (and (and (and (and (and (and (and (and (and (and (and (and (and (and (and (and (and (and (and (and (and (and (and (and (and (and (and (and (and (and (and (and (and (and (and (and (and (and (and (and (and (and (and (and (and (and (and (and (and (and (and (and (and (and (and (and (and (and (and (and (and (and (and (and (and (and (and (and (and (and (and (and (and (and (and (and (and (and (and (and (and (and (and (and (and (and (and (and (and (and (and (and (and (and (and (and (and (and (and (and (and (and (and (and (and (and (and (and (and (and (and (and (and (and (and (and (and (and (and (and (and (and (and (and (and (and (and (and (and (and (and (and (and (and (and (and (and (and (and (and (and (and (and (and (and (and (and (and (and (and (and (and (and (not (= x_2 x_1)) (= x_288 (select x_21 x_1))) (= x_289 (select x_21 x_2))) (or (not (= x_288 3)) (not (= x_289 3)))) (= x_290 (select x_20 x_1))) (= x_291 (select x_20 x_2))) (or (not (= x_290 3)) (not (= x_291 3)))) (= x_292 (select x_19 x_1))) (= x_293 (select x_19 x_2))) (or (not (= x_292 3)) (not (= x_293 3)))) (= x_294 (select x_18 x_1))) (= x_295 (select x_18 x_2))) (or (not (= x_294 3)) (not (= x_295 3)))) (= x_296 (select x_17 x_1))) (= x_297 (select x_17 x_2))) (or (not (= x_296 3)) (not (= x_297 3)))) (= x_298 (select x_16 x_1))) (= x_299 (select x_16 x_2))) (or (not (= x_298 3)) (not (= x_299 3)))) (= x_300 (select x_15 x_1))) (= x_301 (select x_15 x_2))) (or (not (= x_300 3)) (not (= x_301 3)))) (= x_302 (select x_14 x_1))) (= x_303 (select x_14 x_2))) (or (not (= x_302 3)) (not (= x_303 3)))) (= x_304 (select x_13 x_1))) (= x_305 (select x_13 x_2))) (or (not (= x_304 3)) (not (= x_305 3)))) (= x_306 (select x_12 x_1))) (= x_307 (select x_12 x_2))) (or (not (= x_306 3)) (not (= x_307 3)))) (= x_308 (select x_11 x_1))) (= x_309 (select x_11 x_2))) (or (not (= x_308 3)) (not (= x_309 3)))) (= x_310 (select x_10 x_1))) (= x_311 (select x_10 x_2))) (or (not (= x_310 3)) (not (= x_311 3)))) (= x_312 (select x_9 x_1))) (= x_313 (select x_9 x_2))) (or (not (= x_312 3)) (not (= x_313 3)))) (= x_314 (select x_8 x_1))) (= x_315 (select x_8 x_2))) (or (not (= x_314 3)) (not (= x_315 3)))) (= x_316 (select x_7 x_1))) (= x_317 (select x_7 x_2))) (or (not (= x_316 3)) (not (= x_317 3)))) (= x_318 (select x_6 x_1))) (= x_319 (select x_6 x_2))) (or (not (= x_318 3)) (not (= x_319 3)))) (= x_320 (select x_5 x_1))) (= x_321 (select x_5 x_2))) (or (not (= x_320 3)) (not (= x_321 3)))) (= x_322 (select x_4 x_1))) (= x_323 (select x_4 x_2))) (or (not (= x_322 3)) (not (= x_323 3)))) (= x_324 (select x_3 x_1))) (= x_325 (select x_3 x_2))) (or (not (= x_324 3)) (not (= x_325 3)))) (= x_326 (select x_0 x_1))) (= x_327 (select x_0 x_2))) (or (not (= x_326 3)) (not (= x_327 3)))) (= x_328 (select x_22 x_23))) (= x_24 x_328)) (= x_329 (select x_25 x_26))) (= x_40 x_329)) (= x_330 (select x_41 x_42))) (= x_53 x_330)) (= x_331 (select x_54 x_55))) (= x_66 x_331)) (= x_332 (select x_67 x_68))) (= x_79 x_332)) (= x_333 (select x_80 x_81))) (= x_92 x_333)) (= x_334 (select x_93 x_94))) (= x_105 x_334)) (= x_335 (select x_106 x_107))) (= x_118 x_335)) (= x_336 (select x_119 x_120))) (= x_131 x_336)) (= x_337 (select x_132 x_133))) (= x_144 x_337)) (= x_338 (select x_145 x_146))) (= x_157 x_338)) (= x_339 (select x_158 x_159))) (= x_170 x_339)) (= x_340 (select x_171 x_172))) (= x_183 x_340)) (= x_341 (select x_184 x_185))) (= x_196 x_341)) (= x_342 (select x_197 x_198))) (= x_209 x_342)) (= x_343 (select x_210 x_211))) (= x_222 x_343)) (= x_344 (select x_223 x_224))) (= x_235 x_344)) (= x_345 (select x_236 x_237))) (= x_248 x_345)) (= x_346 (select x_249 x_250))) (= x_261 x_346)) (= x_347 (select x_262 x_263))) (= x_274 x_347)) (= x_279 (+ x_266 1))) (= x_348 (select x_21 x_281))) (= x_349 (select x_21 x_284))) (= x_350 (select x_21 x_286))) (or (or (or (and (and (and (and (and (and (and (= x_280 0) (= x_278 (+ x_265 1))) ?v_0) ?v_1) (= x_282 x_281)) (= x_348 1)) (= x_283 (store x_21 x_281 2))) (= x_275 (store x_262 x_265 x_281))) (and (and (and (and (and (and (and (and (and (= x_280 1) ?v_2) ?v_0) ?v_1) ?v_3) ?v_4) (= x_285 x_284)) (= x_349 2)) (= x_274 x_284)) (= x_283 (store x_21 x_284 3)))) (and (and (and (and (and (and (and (and (and (= x_280 2) ?v_2) (= x_276 (+ x_263 1))) ?v_1) ?v_3) ?v_4) (= x_287 x_286)) (= x_350 3)) (or (not (<= x_266 12)) (= x_274 x_286))) (= x_283 (store x_21 x_286 1)))) (and (and (and (and (and (= x_280 3) ?v_3) ?v_0) ?v_1) (= x_283 x_21)) ?v_4))) (= x_266 (+ x_253 1))) (= x_351 (select x_20 x_268))) (= x_352 (select x_20 x_270))) (= x_353 (select x_20 x_272))) (or (or (or (and (and (and (and (and (and (and (= x_267 0) (= x_265 (+ x_252 1))) ?v_5) ?v_6) (= x_269 x_268)) (= x_351 1)) (= x_21 (store x_20 x_268 2))) (= x_262 (store x_249 x_252 x_268))) (and (and (and (and (and (and (and (and (and (= x_267 1) ?v_7) ?v_5) ?v_6) ?v_8) ?v_9) (= x_271 x_270)) (= x_352 2)) (= x_261 x_270)) (= x_21 (store x_20 x_270 3)))) (and (and (and (and (and (and (and (and (and (= x_267 2) ?v_7) (= x_263 (+ x_250 1))) ?v_6) ?v_8) ?v_9) (= x_273 x_272)) (= x_353 3)) (or (not (<= x_253 12)) (= x_261 x_272))) (= x_21 (store x_20 x_272 1)))) (and (and (and (and (and (= x_267 3) ?v_8) ?v_5) ?v_6) (= x_21 x_20)) ?v_9))) (= x_253 (+ x_240 1))) (= x_354 (select x_19 x_255))) (= x_355 (select x_19 x_257))) (= x_356 (select x_19 x_259))) (or (or (or (and (and (and (and (and (and (and (= x_254 0) (= x_252 (+ x_239 1))) ?v_10) ?v_11) (= x_256 x_255)) (= x_354 1)) (= x_20 (store x_19 x_255 2))) (= x_249 (store x_236 x_239 x_255))) (and (and (and (and (and (and (and (and (and (= x_254 1) ?v_12) ?v_10) ?v_11) ?v_13) ?v_14) (= x_258 x_257)) (= x_355 2)) (= x_248 x_257)) (= x_20 (store x_19 x_257 3)))) (and (and (and (and (and (and (and (and (and (= x_254 2) ?v_12) (= x_250 (+ x_237 1))) ?v_11) ?v_13) ?v_14) (= x_260 x_259)) (= x_356 3)) (or (not (<= x_240 12)) (= x_248 x_259))) (= x_20 (store x_19 x_259 1)))) (and (and (and (and (and (= x_254 3) ?v_13) ?v_10) ?v_11) (= x_20 x_19)) ?v_14))) (= x_240 (+ x_227 1))) (= x_357 (select x_18 x_242))) (= x_358 (select x_18 x_244))) (= x_359 (select x_18 x_246))) (or (or (or (and (and (and (and (and (and (and (= x_241 0) (= x_239 (+ x_226 1))) ?v_15) ?v_16) (= x_243 x_242)) (= x_357 1)) (= x_19 (store x_18 x_242 2))) (= x_236 (store x_223 x_226 x_242))) (and (and (and (and (and (and (and (and (and (= x_241 1) ?v_17) ?v_15) ?v_16) ?v_18) ?v_19) (= x_245 x_244)) (= x_358 2)) (= x_235 x_244)) (= x_19 (store x_18 x_244 3)))) (and (and (and (and (and (and (and (and (and (= x_241 2) ?v_17) (= x_237 (+ x_224 1))) ?v_16) ?v_18) ?v_19) (= x_247 x_246)) (= x_359 3)) (or (not (<= x_227 12)) (= x_235 x_246))) (= x_19 (store x_18 x_246 1)))) (and (and (and (and (and (= x_241 3) ?v_18) ?v_15) ?v_16) (= x_19 x_18)) ?v_19))) (= x_227 (+ x_214 1))) (= x_360 (select x_17 x_229))) (= x_361 (select x_17 x_231))) (= x_362 (select x_17 x_233))) (or (or (or (and (and (and (and (and (and (and (= x_228 0) (= x_226 (+ x_213 1))) ?v_20) ?v_21) (= x_230 x_229)) (= x_360 1)) (= x_18 (store x_17 x_229 2))) (= x_223 (store x_210 x_213 x_229))) (and (and (and (and (and (and (and (and (and (= x_228 1) ?v_22) ?v_20) ?v_21) ?v_23) ?v_24) (= x_232 x_231)) (= x_361 2)) (= x_222 x_231)) (= x_18 (store x_17 x_231 3)))) (and (and (and (and (and (and (and (and (and (= x_228 2) ?v_22) (= x_224 (+ x_211 1))) ?v_21) ?v_23) ?v_24) (= x_234 x_233)) (= x_362 3)) (or (not (<= x_214 12)) (= x_222 x_233))) (= x_18 (store x_17 x_233 1)))) (and (and (and (and (and (= x_228 3) ?v_23) ?v_20) ?v_21) (= x_18 x_17)) ?v_24))) (= x_214 (+ x_201 1))) (= x_363 (select x_16 x_216))) (= x_364 (select x_16 x_218))) (= x_365 (select x_16 x_220))) (or (or (or (and (and (and (and (and (and (and (= x_215 0) (= x_213 (+ x_200 1))) ?v_25) ?v_26) (= x_217 x_216)) (= x_363 1)) (= x_17 (store x_16 x_216 2))) (= x_210 (store x_197 x_200 x_216))) (and (and (and (and (and (and (and (and (and (= x_215 1) ?v_27) ?v_25) ?v_26) ?v_28) ?v_29) (= x_219 x_218)) (= x_364 2)) (= x_209 x_218)) (= x_17 (store x_16 x_218 3)))) (and (and (and (and (and (and (and (and (and (= x_215 2) ?v_27) (= x_211 (+ x_198 1))) ?v_26) ?v_28) ?v_29) (= x_221 x_220)) (= x_365 3)) (or (not (<= x_201 12)) (= x_209 x_220))) (= x_17 (store x_16 x_220 1)))) (and (and (and (and (and (= x_215 3) ?v_28) ?v_25) ?v_26) (= x_17 x_16)) ?v_29))) (= x_201 (+ x_188 1))) (= x_366 (select x_15 x_203))) (= x_367 (select x_15 x_205))) (= x_368 (select x_15 x_207))) (or (or (or (and (and (and (and (and (and (and (= x_202 0) (= x_200 (+ x_187 1))) ?v_30) ?v_31) (= x_204 x_203)) (= x_366 1)) (= x_16 (store x_15 x_203 2))) (= x_197 (store x_184 x_187 x_203))) (and (and (and (and (and (and (and (and (and (= x_202 1) ?v_32) ?v_30) ?v_31) ?v_33) ?v_34) (= x_206 x_205)) (= x_367 2)) (= x_196 x_205)) (= x_16 (store x_15 x_205 3)))) (and (and (and (and (and (and (and (and (and (= x_202 2) ?v_32) (= x_198 (+ x_185 1))) ?v_31) ?v_33) ?v_34) (= x_208 x_207)) (= x_368 3)) (or (not (<= x_188 12)) (= x_196 x_207))) (= x_16 (store x_15 x_207 1)))) (and (and (and (and (and (= x_202 3) ?v_33) ?v_30) ?v_31) (= x_16 x_15)) ?v_34))) (= x_188 (+ x_175 1))) (= x_369 (select x_14 x_190))) (= x_370 (select x_14 x_192))) (= x_371 (select x_14 x_194))) (or (or (or (and (and (and (and (and (and (and (= x_189 0) (= x_187 (+ x_174 1))) ?v_35) ?v_36) (= x_191 x_190)) (= x_369 1)) (= x_15 (store x_14 x_190 2))) (= x_184 (store x_171 x_174 x_190))) (and (and (and (and (and (and (and (and (and (= x_189 1) ?v_37) ?v_35) ?v_36) ?v_38) ?v_39) (= x_193 x_192)) (= x_370 2)) (= x_183 x_192)) (= x_15 (store x_14 x_192 3)))) (and (and (and (and (and (and (and (and (and (= x_189 2) ?v_37) (= x_185 (+ x_172 1))) ?v_36) ?v_38) ?v_39) (= x_195 x_194)) (= x_371 3)) (or (not (<= x_175 12)) (= x_183 x_194))) (= x_15 (store x_14 x_194 1)))) (and (and (and (and (and (= x_189 3) ?v_38) ?v_35) ?v_36) (= x_15 x_14)) ?v_39))) (= x_175 (+ x_162 1))) (= x_372 (select x_13 x_177))) (= x_373 (select x_13 x_179))) (= x_374 (select x_13 x_181))) (or (or (or (and (and (and (and (and (and (and (= x_176 0) (= x_174 (+ x_161 1))) ?v_40) ?v_41) (= x_178 x_177)) (= x_372 1)) (= x_14 (store x_13 x_177 2))) (= x_171 (store x_158 x_161 x_177))) (and (and (and (and (and (and (and (and (and (= x_176 1) ?v_42) ?v_40) ?v_41) ?v_43) ?v_44) (= x_180 x_179)) (= x_373 2)) (= x_170 x_179)) (= x_14 (store x_13 x_179 3)))) (and (and (and (and (and (and (and (and (and (= x_176 2) ?v_42) (= x_172 (+ x_159 1))) ?v_41) ?v_43) ?v_44) (= x_182 x_181)) (= x_374 3)) (or (not (<= x_162 12)) (= x_170 x_181))) (= x_14 (store x_13 x_181 1)))) (and (and (and (and (and (= x_176 3) ?v_43) ?v_40) ?v_41) (= x_14 x_13)) ?v_44))) (= x_162 (+ x_149 1))) (= x_375 (select x_12 x_164))) (= x_376 (select x_12 x_166))) (= x_377 (select x_12 x_168))) (or (or (or (and (and (and (and (and (and (and (= x_163 0) (= x_161 (+ x_148 1))) ?v_45) ?v_46) (= x_165 x_164)) (= x_375 1)) (= x_13 (store x_12 x_164 2))) (= x_158 (store x_145 x_148 x_164))) (and (and (and (and (and (and (and (and (and (= x_163 1) ?v_47) ?v_45) ?v_46) ?v_48) ?v_49) (= x_167 x_166)) (= x_376 2)) (= x_157 x_166)) (= x_13 (store x_12 x_166 3)))) (and (and (and (and (and (and (and (and (and (= x_163 2) ?v_47) (= x_159 (+ x_146 1))) ?v_46) ?v_48) ?v_49) (= x_169 x_168)) (= x_377 3)) (or (not (<= x_149 12)) (= x_157 x_168))) (= x_13 (store x_12 x_168 1)))) (and (and (and (and (and (= x_163 3) ?v_48) ?v_45) ?v_46) (= x_13 x_12)) ?v_49))) (= x_149 (+ x_136 1))) (= x_378 (select x_11 x_151))) (= x_379 (select x_11 x_153))) (= x_380 (select x_11 x_155))) (or (or (or (and (and (and (and (and (and (and (= x_150 0) (= x_148 (+ x_135 1))) ?v_50) ?v_51) (= x_152 x_151)) (= x_378 1)) (= x_12 (store x_11 x_151 2))) (= x_145 (store x_132 x_135 x_151))) (and (and (and (and (and (and (and (and (and (= x_150 1) ?v_52) ?v_50) ?v_51) ?v_53) ?v_54) (= x_154 x_153)) (= x_379 2)) (= x_144 x_153)) (= x_12 (store x_11 x_153 3)))) (and (and (and (and (and (and (and (and (and (= x_150 2) ?v_52) (= x_146 (+ x_133 1))) ?v_51) ?v_53) ?v_54) (= x_156 x_155)) (= x_380 3)) (or (not (<= x_136 12)) (= x_144 x_155))) (= x_12 (store x_11 x_155 1)))) (and (and (and (and (and (= x_150 3) ?v_53) ?v_50) ?v_51) (= x_12 x_11)) ?v_54))) (= x_136 (+ x_123 1))) (= x_381 (select x_10 x_138))) (= x_382 (select x_10 x_140))) (= x_383 (select x_10 x_142))) (or (or (or (and (and (and (and (and (and (and (= x_137 0) (= x_135 (+ x_122 1))) ?v_55) ?v_56) (= x_139 x_138)) (= x_381 1)) (= x_11 (store x_10 x_138 2))) (= x_132 (store x_119 x_122 x_138))) (and (and (and (and (and (and (and (and (and (= x_137 1) ?v_57) ?v_55) ?v_56) ?v_58) ?v_59) (= x_141 x_140)) (= x_382 2)) (= x_131 x_140)) (= x_11 (store x_10 x_140 3)))) (and (and (and (and (and (and (and (and (and (= x_137 2) ?v_57) (= x_133 (+ x_120 1))) ?v_56) ?v_58) ?v_59) (= x_143 x_142)) (= x_383 3)) (or (not (<= x_123 12)) (= x_131 x_142))) (= x_11 (store x_10 x_142 1)))) (and (and (and (and (and (= x_137 3) ?v_58) ?v_55) ?v_56) (= x_11 x_10)) ?v_59))) (= x_123 (+ x_110 1))) (= x_384 (select x_9 x_125))) (= x_385 (select x_9 x_127))) (= x_386 (select x_9 x_129))) (or (or (or (and (and (and (and (and (and (and (= x_124 0) (= x_122 (+ x_109 1))) ?v_60) ?v_61) (= x_126 x_125)) (= x_384 1)) (= x_10 (store x_9 x_125 2))) (= x_119 (store x_106 x_109 x_125))) (and (and (and (and (and (and (and (and (and (= x_124 1) ?v_62) ?v_60) ?v_61) ?v_63) ?v_64) (= x_128 x_127)) (= x_385 2)) (= x_118 x_127)) (= x_10 (store x_9 x_127 3)))) (and (and (and (and (and (and (and (and (and (= x_124 2) ?v_62) (= x_120 (+ x_107 1))) ?v_61) ?v_63) ?v_64) (= x_130 x_129)) (= x_386 3)) (or (not (<= x_110 12)) (= x_118 x_129))) (= x_10 (store x_9 x_129 1)))) (and (and (and (and (and (= x_124 3) ?v_63) ?v_60) ?v_61) (= x_10 x_9)) ?v_64))) (= x_110 (+ x_97 1))) (= x_387 (select x_8 x_112))) (= x_388 (select x_8 x_114))) (= x_389 (select x_8 x_116))) (or (or (or (and (and (and (and (and (and (and (= x_111 0) (= x_109 (+ x_96 1))) ?v_65) ?v_66) (= x_113 x_112)) (= x_387 1)) (= x_9 (store x_8 x_112 2))) (= x_106 (store x_93 x_96 x_112))) (and (and (and (and (and (and (and (and (and (= x_111 1) ?v_67) ?v_65) ?v_66) ?v_68) ?v_69) (= x_115 x_114)) (= x_388 2)) (= x_105 x_114)) (= x_9 (store x_8 x_114 3)))) (and (and (and (and (and (and (and (and (and (= x_111 2) ?v_67) (= x_107 (+ x_94 1))) ?v_66) ?v_68) ?v_69) (= x_117 x_116)) (= x_389 3)) (or (not (<= x_97 12)) (= x_105 x_116))) (= x_9 (store x_8 x_116 1)))) (and (and (and (and (and (= x_111 3) ?v_68) ?v_65) ?v_66) (= x_9 x_8)) ?v_69))) (= x_97 (+ x_84 1))) (= x_390 (select x_7 x_99))) (= x_391 (select x_7 x_101))) (= x_392 (select x_7 x_103))) (or (or (or (and (and (and (and (and (and (and (= x_98 0) (= x_96 (+ x_83 1))) ?v_70) ?v_71) (= x_100 x_99)) (= x_390 1)) (= x_8 (store x_7 x_99 2))) (= x_93 (store x_80 x_83 x_99))) (and (and (and (and (and (and (and (and (and (= x_98 1) ?v_72) ?v_70) ?v_71) ?v_73) ?v_74) (= x_102 x_101)) (= x_391 2)) (= x_92 x_101)) (= x_8 (store x_7 x_101 3)))) (and (and (and (and (and (and (and (and (and (= x_98 2) ?v_72) (= x_94 (+ x_81 1))) ?v_71) ?v_73) ?v_74) (= x_104 x_103)) (= x_392 3)) (or (not (<= x_84 12)) (= x_92 x_103))) (= x_8 (store x_7 x_103 1)))) (and (and (and (and (and (= x_98 3) ?v_73) ?v_70) ?v_71) (= x_8 x_7)) ?v_74))) (= x_84 (+ x_71 1))) (= x_393 (select x_6 x_86))) (= x_394 (select x_6 x_88))) (= x_395 (select x_6 x_90))) (or (or (or (and (and (and (and (and (and (and (= x_85 0) (= x_83 (+ x_70 1))) ?v_75) ?v_76) (= x_87 x_86)) (= x_393 1)) (= x_7 (store x_6 x_86 2))) (= x_80 (store x_67 x_70 x_86))) (and (and (and (and (and (and (and (and (and (= x_85 1) ?v_77) ?v_75) ?v_76) ?v_78) ?v_79) (= x_89 x_88)) (= x_394 2)) (= x_79 x_88)) (= x_7 (store x_6 x_88 3)))) (and (and (and (and (and (and (and (and (and (= x_85 2) ?v_77) (= x_81 (+ x_68 1))) ?v_76) ?v_78) ?v_79) (= x_91 x_90)) (= x_395 3)) (or (not (<= x_71 12)) (= x_79 x_90))) (= x_7 (store x_6 x_90 1)))) (and (and (and (and (and (= x_85 3) ?v_78) ?v_75) ?v_76) (= x_7 x_6)) ?v_79))) (= x_71 (+ x_58 1))) (= x_396 (select x_5 x_73))) (= x_397 (select x_5 x_75))) (= x_398 (select x_5 x_77))) (or (or (or (and (and (and (and (and (and (and (= x_72 0) (= x_70 (+ x_57 1))) ?v_80) ?v_81) (= x_74 x_73)) (= x_396 1)) (= x_6 (store x_5 x_73 2))) (= x_67 (store x_54 x_57 x_73))) (and (and (and (and (and (and (and (and (and (= x_72 1) ?v_82) ?v_80) ?v_81) ?v_83) ?v_84) (= x_76 x_75)) (= x_397 2)) (= x_66 x_75)) (= x_6 (store x_5 x_75 3)))) (and (and (and (and (and (and (and (and (and (= x_72 2) ?v_82) (= x_68 (+ x_55 1))) ?v_81) ?v_83) ?v_84) (= x_78 x_77)) (= x_398 3)) (or (not (<= x_58 12)) (= x_66 x_77))) (= x_6 (store x_5 x_77 1)))) (and (and (and (and (and (= x_72 3) ?v_83) ?v_80) ?v_81) (= x_6 x_5)) ?v_84))) (= x_58 (+ x_45 1))) (= x_399 (select x_4 x_60))) (= x_400 (select x_4 x_62))) (= x_401 (select x_4 x_64))) (or (or (or (and (and (and (and (and (and (and (= x_59 0) (= x_57 (+ x_44 1))) ?v_85) ?v_86) (= x_61 x_60)) (= x_399 1)) (= x_5 (store x_4 x_60 2))) (= x_54 (store x_41 x_44 x_60))) (and (and (and (and (and (and (and (and (and (= x_59 1) ?v_87) ?v_85) ?v_86) ?v_88) ?v_89) (= x_63 x_62)) (= x_400 2)) (= x_53 x_62)) (= x_5 (store x_4 x_62 3)))) (and (and (and (and (and (and (and (and (and (= x_59 2) ?v_87) (= x_55 (+ x_42 1))) ?v_86) ?v_88) ?v_89) (= x_65 x_64)) (= x_401 3)) (or (not (<= x_45 12)) (= x_53 x_64))) (= x_5 (store x_4 x_64 1)))) (and (and (and (and (and (= x_59 3) ?v_88) ?v_85) ?v_86) (= x_5 x_4)) ?v_89))) (= x_45 (+ x_31 1))) (= x_402 (select x_3 x_47))) (= x_403 (select x_3 x_49))) (= x_404 (select x_3 x_51))) (or (or (or (and (and (and (and (and (and (and (= x_46 0) (= x_44 (+ x_29 1))) ?v_90) ?v_91) (= x_48 x_47)) (= x_402 1)) (= x_4 (store x_3 x_47 2))) (= x_41 (store x_25 x_29 x_47))) (and (and (and (and (and (and (and (and (and (= x_46 1) ?v_92) ?v_90) ?v_91) ?v_93) ?v_94) (= x_50 x_49)) (= x_403 2)) (= x_40 x_49)) (= x_4 (store x_3 x_49 3)))) (and (and (and (and (and (and (and (and (and (= x_46 2) ?v_92) (= x_42 (+ x_26 1))) ?v_91) ?v_93) ?v_94) (= x_52 x_51)) (= x_404 3)) (or (not (<= x_31 12)) (= x_40 x_51))) (= x_4 (store x_3 x_51 1)))) (and (and (and (and (and (= x_46 3) ?v_93) ?v_90) ?v_91) (= x_4 x_3)) ?v_94))) (= x_31 (+ x_32 1))) (= x_405 (select x_0 x_34))) (= x_406 (select x_0 x_36))) (= x_407 (select x_0 x_38))) (or (or (or (and (and (and (and (and (and (and (= x_33 0) (= x_29 (+ x_30 1))) ?v_95) ?v_96) (= x_35 x_34)) (= x_405 1)) (= x_3 (store x_0 x_34 2))) (= x_25 (store x_22 x_30 x_34))) (and (and (and (and (and (and (and (and (and (= x_33 1) ?v_97) ?v_95) ?v_96) ?v_98) ?v_99) (= x_37 x_36)) (= x_406 2)) (= x_24 x_36)) (= x_3 (store x_0 x_36 3)))) (and (and (and (and (and (and (and (and (and (= x_33 2) ?v_97) (= x_26 (+ x_23 1))) ?v_96) ?v_98) ?v_99) (= x_39 x_38)) (= x_407 3)) (or (not (<= x_32 12)) (= x_24 x_38))) (= x_3 (store x_0 x_38 1)))) (and (and (and (and (and (= x_33 3) ?v_98) ?v_95) ?v_96) (= x_3 x_0)) ?v_99))) (= x_408 (select x_283 x_1))) (= x_408 3)) (= x_409 (select x_283 x_2))) (= x_409 3))))
; --- Injected Array Sum Constraint ---
(assert (sum x_9 (+ x_130 (+ x_127 x_156))))
(assert (sum x_275 (+ x_253 (+ x_376 x_155))))
(assert (sum x_8 (+ x_110 (+ x_278 x_339))))
(check-sat)
(exit)